152 142668
1 16 2 15 32 33 82 87 83 62 63 64 59 58 42 61 60 86 107 106 105 118 137 138 143 142 141 139 140 117 104 111 112 121 132 131 147 148 149 130 129 122 99 97 98 90 29 30 31 3 14 4 38 80 89 100 113 114 120 133 145 134 146 144 135 136 119 110 109 108 85 84 41 6 12 24 25 26 5 13 27 28 43 57 65 66 67 68 56 55 44 39 23 22 11 7 20 21 19 10 8 9 17 18 40 81 88 103 102 101 123 128 127 151 150 152 126 125 124 95 94 93 77 76 50 48 49 74 75 73 51 47 92 78 116 115 96 91 79 72 53 52 46 71 70 69 54 45 37 34 36 35 
